mp-19094_VO2
1.0
   4.5072020454383885    0.0000000000000000    0.0000000000000003
   0.0000000000000007    4.5072020454383885    0.0000000000000003
   0.0000000000000000    0.0000000000000000    3.0444499999999999
V O
2 4
direct
   0.0000000000000000    0.0000000000000000    0.0000000000000000 V
   0.5000000000000000    0.5000000000000000    0.5000000000000000 V
   0.7003580000000010    0.2996419999999990    0.0000000000000000 O
   0.2996419999999990    0.7003580000000010    0.0000000000000000 O
   0.7996419999999990    0.7996419999999990    0.5000000000000000 O
   0.2003580000000010    0.2003580000000009    0.5000000000000000 O
