mp-18949_VFeO4
1.0
   5.6299521853151866    0.0000000000000000    0.0000000000000003
   0.0000000000000013    8.2457466933618164    0.0000000000000005
   0.0000000000000000    0.0000000000000000    6.1271265019250709
V Fe O
4 4 16
direct
   0.5000000000000000    0.3586726950000000    0.7500000000000000 V
   0.5000000000000000    0.6413273050000000    0.2500000000000000 V
   0.0000000000000000    0.8586726950000000    0.7500000000000000 V
   0.0000000000000000    0.1413273049999999    0.2500000000000000 V
   0.5000000000000000    0.0000000000000000    0.5000000000000000 Fe
   0.5000000000000000    0.0000000000000000    0.0000000000000000 Fe
   0.0000000000000000    0.5000000000000000    0.5000000000000000 Fe
   0.0000000000000000    0.5000000000000000    0.0000000000000000 Fe
   0.7627524100000000    0.5209787749999999    0.2500000000000000 O
   0.2372475900000000    0.4790212250000001    0.7500000000000000 O
   0.7627524100000000    0.4790212250000001    0.7500000000000000 O
   0.2372475900000000    0.5209787749999999    0.2500000000000000 O
   0.5000000000000000    0.7625510649999999    0.4690492850000000 O
   0.5000000000000000    0.2374489350000001    0.9690492850000000 O
   0.5000000000000000    0.7625510649999999    0.0309507150000000 O
   0.5000000000000000    0.2374489350000001    0.5309507150000000 O
   0.2627524100000000    0.0209787749999999    0.2500000000000000 O
   0.7372475900000000    0.9790212250000001    0.7500000000000000 O
   0.2627524100000000    0.9790212250000001    0.7500000000000000 O
   0.7372475900000000    0.0209787749999999    0.2500000000000000 O
   0.0000000000000000    0.2625510649999998    0.4690492850000000 O
   0.0000000000000000    0.7374489350000001    0.9690492850000000 O
   0.0000000000000000    0.2625510649999998    0.0309507150000000 O
   0.0000000000000000    0.7374489350000001    0.5309507150000000 O
