Pt1439
1.0
  69.2400000000000091    0.0000000000000000    0.0000000000000042
   0.0000000000000111   69.2400000000000091    0.0000000000000042
   0.0000000000000000    0.0000000000000000   69.2400000000000091
Pt
1439
direct
   0.2449740034662042    0.4149913344887349    0.5000000000000000 Pt
   0.2449740034662042    0.4716637781629117    0.4433275563258232 Pt
   0.2449740034662042    0.4433275563258232    0.4716637781629116 Pt
   0.2166377816291158    0.4716637781629117    0.4716637781629116 Pt
   0.2166377816291158    0.4433275563258232    0.5000000000000000 Pt
   0.2449740034662042    0.4716637781629117    0.5000000000000000 Pt
   0.2449740034662042    0.4433275563258232    0.5283362218370884 Pt
   0.2166377816291158    0.4716637781629117    0.5283362218370884 Pt
   0.2449740034662042    0.4716637781629117    0.5566724436741768 Pt
   0.2449740034662042    0.5000000000000000    0.4149913344887349 Pt
   0.2166377816291158    0.5000000000000000    0.4433275563258232 Pt
   0.2449740034662042    0.5283362218370884    0.4433275563258232 Pt
   0.2449740034662042    0.5000000000000000    0.4716637781629116 Pt
   0.2166377816291158    0.5283362218370884    0.4716637781629116 Pt
   0.2166377816291158    0.5000000000000000    0.5000000000000000 Pt
   0.2449740034662042    0.5283362218370884    0.5000000000000000 Pt
   0.2449740034662042    0.5000000000000000    0.5283362218370884 Pt
   0.2166377816291158    0.5283362218370884    0.5283362218370884 Pt
   0.2166377816291158    0.5000000000000000    0.5566724436741768 Pt
   0.2449740034662042    0.5283362218370884    0.5566724436741768 Pt
   0.2449740034662042    0.5000000000000000    0.5850086655112652 Pt
   0.2449740034662042    0.5566724436741768    0.4716637781629116 Pt
   0.2166377816291158    0.5566724436741768    0.5000000000000000 Pt
   0.2449740034662042    0.5850086655112652    0.5000000000000000 Pt
   0.2449740034662042    0.5566724436741768    0.5283362218370884 Pt
   0.3016464471403810    0.3583188908145580    0.5000000000000000 Pt
   0.3016464471403810    0.4149913344887349    0.4433275563258232 Pt
   0.3016464471403810    0.3866551126516465    0.4716637781629116 Pt
   0.2733102253032926    0.4149913344887349    0.4716637781629116 Pt
   0.2733102253032926    0.3866551126516465    0.5000000000000000 Pt
   0.3016464471403810    0.4149913344887349    0.5000000000000000 Pt
   0.3016464471403810    0.3866551126516465    0.5283362218370884 Pt
   0.2733102253032926    0.4149913344887349    0.5283362218370884 Pt
   0.3016464471403810    0.4149913344887349    0.5566724436741768 Pt
   0.3016464471403810    0.4716637781629117    0.3866551126516465 Pt
   0.3016464471403810    0.4433275563258232    0.4149913344887349 Pt
   0.2733102253032926    0.4716637781629117    0.4149913344887349 Pt
   0.2733102253032926    0.4433275563258232    0.4433275563258232 Pt
   0.3016464471403810    0.4716637781629117    0.4433275563258232 Pt
   0.3016464471403810    0.4433275563258232    0.4716637781629116 Pt
   0.2733102253032926    0.4716637781629117    0.4716637781629116 Pt
   0.2733102253032926    0.4433275563258232    0.5000000000000000 Pt
   0.3016464471403810    0.4716637781629117    0.5000000000000000 Pt
   0.3016464471403810    0.4433275563258232    0.5283362218370884 Pt
   0.2733102253032926    0.4716637781629117    0.5283362218370884 Pt
   0.2733102253032926    0.4433275563258232    0.5566724436741768 Pt
   0.3016464471403810    0.4716637781629117    0.5566724436741768 Pt
   0.3016464471403810    0.4433275563258232    0.5850086655112652 Pt
   0.2733102253032926    0.4716637781629117    0.5850086655112652 Pt
   0.3016464471403810    0.4716637781629117    0.6133448873483536 Pt
   0.3016464471403810    0.5000000000000000    0.3583188908145580 Pt
   0.2733102253032926    0.5000000000000000    0.3866551126516465 Pt
   0.3016464471403810    0.5283362218370884    0.3866551126516465 Pt
   0.3016464471403810    0.5000000000000000    0.4149913344887349 Pt
   0.2733102253032926    0.5283362218370884    0.4149913344887349 Pt
   0.2733102253032926    0.5000000000000000    0.4433275563258232 Pt
   0.3016464471403810    0.5283362218370884    0.4433275563258232 Pt
   0.3016464471403810    0.5000000000000000    0.4716637781629116 Pt
   0.2733102253032926    0.5283362218370884    0.4716637781629116 Pt
   0.2733102253032926    0.5000000000000000    0.5000000000000000 Pt
   0.3016464471403810    0.5283362218370884    0.5000000000000000 Pt
   0.3016464471403810    0.5000000000000000    0.5283362218370884 Pt
   0.2733102253032926    0.5283362218370884    0.5283362218370884 Pt
   0.2733102253032926    0.5000000000000000    0.5566724436741768 Pt
   0.3016464471403810    0.5283362218370884    0.5566724436741768 Pt
   0.3016464471403810    0.5000000000000000    0.5850086655112652 Pt
   0.2733102253032926    0.5283362218370884    0.5850086655112652 Pt
   0.2733102253032926    0.5000000000000000    0.6133448873483536 Pt
   0.3016464471403810    0.5283362218370884    0.6133448873483536 Pt
   0.3016464471403810    0.5000000000000000    0.6416811091854420 Pt
   0.3016464471403810    0.5566724436741768    0.4149913344887349 Pt
   0.2733102253032926    0.5566724436741768    0.4433275563258232 Pt
   0.3016464471403810    0.5850086655112652    0.4433275563258232 Pt
   0.3016464471403810    0.5566724436741768    0.4716637781629116 Pt
   0.2733102253032926    0.5850086655112652    0.4716637781629116 Pt
   0.2733102253032926    0.5566724436741768    0.5000000000000000 Pt
   0.3016464471403810    0.5850086655112652    0.5000000000000000 Pt
   0.3016464471403810    0.5566724436741768    0.5283362218370884 Pt
   0.2733102253032926    0.5850086655112652    0.5283362218370884 Pt
   0.2733102253032926    0.5566724436741768    0.5566724436741768 Pt
   0.3016464471403810    0.5850086655112652    0.5566724436741768 Pt
   0.3016464471403810    0.5566724436741768    0.5850086655112652 Pt
   0.3016464471403810    0.6133448873483536    0.4716637781629116 Pt
   0.2733102253032926    0.6133448873483536    0.5000000000000000 Pt
   0.3016464471403810    0.6416811091854420    0.5000000000000000 Pt
   0.3016464471403810    0.6133448873483536    0.5283362218370884 Pt
   0.3583188908145578    0.3016464471403813    0.5000000000000000 Pt
   0.3583188908145578    0.3583188908145580    0.4433275563258232 Pt
   0.3583188908145578    0.3299826689774697    0.4716637781629116 Pt
   0.3299826689774694    0.3583188908145580    0.4716637781629116 Pt
   0.3299826689774694    0.3299826689774697    0.5000000000000000 Pt
   0.3583188908145578    0.3583188908145580    0.5000000000000000 Pt
   0.3583188908145578    0.3299826689774697    0.5283362218370884 Pt
   0.3299826689774694    0.3583188908145580    0.5283362218370884 Pt
   0.3583188908145578    0.3583188908145580    0.5566724436741768 Pt
   0.3583188908145578    0.4149913344887349    0.3866551126516465 Pt
   0.3583188908145578    0.3866551126516465    0.4149913344887349 Pt
   0.3299826689774694    0.4149913344887349    0.4149913344887349 Pt
   0.3299826689774694    0.3866551126516465    0.4433275563258232 Pt
   0.3583188908145578    0.4149913344887349    0.4433275563258232 Pt
   0.3583188908145578    0.3866551126516465    0.4716637781629116 Pt
   0.3299826689774694    0.4149913344887349    0.4716637781629116 Pt
   0.3299826689774694    0.3866551126516465    0.5000000000000000 Pt
   0.3583188908145578    0.4149913344887349    0.5000000000000000 Pt
   0.3583188908145578    0.3866551126516465    0.5283362218370884 Pt
   0.3299826689774694    0.4149913344887349    0.5283362218370884 Pt
   0.3299826689774694    0.3866551126516465    0.5566724436741768 Pt
   0.3583188908145578    0.4149913344887349    0.5566724436741768 Pt
   0.3583188908145578    0.3866551126516465    0.5850086655112652 Pt
   0.3299826689774694    0.4149913344887349    0.5850086655112652 Pt
   0.3583188908145578    0.4149913344887349    0.6133448873483536 Pt
   0.3583188908145578    0.4716637781629117    0.3299826689774697 Pt
   0.3583188908145578    0.4433275563258232    0.3583188908145580 Pt
   0.3299826689774694    0.4716637781629117    0.3583188908145580 Pt
   0.3299826689774694    0.4433275563258232    0.3866551126516465 Pt
   0.3583188908145578    0.4716637781629117    0.3866551126516465 Pt
   0.3583188908145578    0.4433275563258232    0.4149913344887349 Pt
   0.3299826689774694    0.4716637781629117    0.4149913344887349 Pt
   0.3299826689774694    0.4433275563258232    0.4433275563258232 Pt
   0.3583188908145578    0.4716637781629117    0.4433275563258232 Pt
   0.3583188908145578    0.4433275563258232    0.4716637781629116 Pt
   0.3299826689774694    0.4716637781629117    0.4716637781629116 Pt
   0.3299826689774694    0.4433275563258232    0.5000000000000000 Pt
   0.3583188908145578    0.4716637781629117    0.5000000000000000 Pt
   0.3583188908145578    0.4433275563258232    0.5283362218370884 Pt
   0.3299826689774694    0.4716637781629117    0.5283362218370884 Pt
   0.3299826689774694    0.4433275563258232    0.5566724436741768 Pt
   0.3583188908145578    0.4716637781629117    0.5566724436741768 Pt
   0.3583188908145578    0.4433275563258232    0.5850086655112652 Pt
   0.3299826689774694    0.4716637781629117    0.5850086655112652 Pt
   0.3299826689774694    0.4433275563258232    0.6133448873483536 Pt
   0.3583188908145578    0.4716637781629117    0.6133448873483536 Pt
   0.3583188908145578    0.4433275563258232    0.6416811091854420 Pt
   0.3299826689774694    0.4716637781629117    0.6416811091854420 Pt
   0.3583188908145578    0.4716637781629117    0.6700173310225302 Pt
   0.3583188908145578    0.5000000000000000    0.3016464471403813 Pt
   0.3299826689774694    0.5000000000000000    0.3299826689774697 Pt
   0.3583188908145578    0.5283362218370884    0.3299826689774697 Pt
   0.3583188908145578    0.5000000000000000    0.3583188908145580 Pt
   0.3299826689774694    0.5283362218370884    0.3583188908145580 Pt
   0.3299826689774694    0.5000000000000000    0.3866551126516465 Pt
   0.3583188908145578    0.5283362218370884    0.3866551126516465 Pt
   0.3583188908145578    0.5000000000000000    0.4149913344887349 Pt
   0.3299826689774694    0.5283362218370884    0.4149913344887349 Pt
   0.3299826689774694    0.5000000000000000    0.4433275563258232 Pt
   0.3583188908145578    0.5283362218370884    0.4433275563258232 Pt
   0.3583188908145578    0.5000000000000000    0.4716637781629116 Pt
   0.3299826689774694    0.5283362218370884    0.4716637781629116 Pt
   0.3299826689774694    0.5000000000000000    0.5000000000000000 Pt
   0.3583188908145578    0.5283362218370884    0.5000000000000000 Pt
   0.3583188908145578    0.5000000000000000    0.5283362218370884 Pt
   0.3299826689774694    0.5283362218370884    0.5283362218370884 Pt
   0.3299826689774694    0.5000000000000000    0.5566724436741768 Pt
   0.3583188908145578    0.5283362218370884    0.5566724436741768 Pt
   0.3583188908145578    0.5000000000000000    0.5850086655112652 Pt
   0.3299826689774694    0.5283362218370884    0.5850086655112652 Pt
   0.3299826689774694    0.5000000000000000    0.6133448873483536 Pt
   0.3583188908145578    0.5283362218370884    0.6133448873483536 Pt
   0.3583188908145578    0.5000000000000000    0.6416811091854420 Pt
   0.3299826689774694    0.5283362218370884    0.6416811091854420 Pt
   0.3299826689774694    0.5000000000000000    0.6700173310225302 Pt
   0.3583188908145578    0.5283362218370884    0.6700173310225302 Pt
   0.3583188908145578    0.5000000000000000    0.6983535528596188 Pt
   0.3583188908145578    0.5566724436741768    0.3583188908145580 Pt
   0.3299826689774694    0.5566724436741768    0.3866551126516465 Pt
   0.3583188908145578    0.5850086655112652    0.3866551126516465 Pt
   0.3583188908145578    0.5566724436741768    0.4149913344887349 Pt
   0.3299826689774694    0.5850086655112652    0.4149913344887349 Pt
   0.3299826689774694    0.5566724436741768    0.4433275563258232 Pt
   0.3583188908145578    0.5850086655112652    0.4433275563258232 Pt
   0.3583188908145578    0.5566724436741768    0.4716637781629116 Pt
   0.3299826689774694    0.5850086655112652    0.4716637781629116 Pt
   0.3299826689774694    0.5566724436741768    0.5000000000000000 Pt
   0.3583188908145578    0.5850086655112652    0.5000000000000000 Pt
   0.3583188908145578    0.5566724436741768    0.5283362218370884 Pt
   0.3299826689774694    0.5850086655112652    0.5283362218370884 Pt
   0.3299826689774694    0.5566724436741768    0.5566724436741768 Pt
   0.3583188908145578    0.5850086655112652    0.5566724436741768 Pt
   0.3583188908145578    0.5566724436741768    0.5850086655112652 Pt
   0.3299826689774694    0.5850086655112652    0.5850086655112652 Pt
   0.3299826689774694    0.5566724436741768    0.6133448873483536 Pt
   0.3583188908145578    0.5850086655112652    0.6133448873483536 Pt
   0.3583188908145578    0.5566724436741768    0.6416811091854420 Pt
   0.3583188908145578    0.6133448873483536    0.4149913344887349 Pt
   0.3299826689774694    0.6133448873483536    0.4433275563258232 Pt
   0.3583188908145578    0.6416811091854420    0.4433275563258232 Pt
   0.3583188908145578    0.6133448873483536    0.4716637781629116 Pt
   0.3299826689774694    0.6416811091854420    0.4716637781629116 Pt
   0.3299826689774694    0.6133448873483536    0.5000000000000000 Pt
   0.3583188908145578    0.6416811091854420    0.5000000000000000 Pt
   0.3583188908145578    0.6133448873483536    0.5283362218370884 Pt
   0.3299826689774694    0.6416811091854420    0.5283362218370884 Pt
   0.3299826689774694    0.6133448873483536    0.5566724436741768 Pt
   0.3583188908145578    0.6416811091854420    0.5566724436741768 Pt
   0.3583188908145578    0.6133448873483536    0.5850086655112652 Pt
   0.3583188908145578    0.6700173310225302    0.4716637781629116 Pt
   0.3299826689774694    0.6700173310225302    0.5000000000000000 Pt
   0.3583188908145578    0.6983535528596188    0.5000000000000000 Pt
   0.3583188908145578    0.6700173310225302    0.5283362218370884 Pt
   0.4149913344887345    0.2449740034662045    0.5000000000000000 Pt
   0.4149913344887345    0.3016464471403813    0.4433275563258232 Pt
   0.4149913344887345    0.2733102253032930    0.4716637781629116 Pt
   0.3866551126516461    0.3016464471403813    0.4716637781629116 Pt
   0.3866551126516461    0.2733102253032930    0.5000000000000000 Pt
   0.4149913344887345    0.3016464471403813    0.5000000000000000 Pt
   0.4149913344887345    0.2733102253032930    0.5283362218370884 Pt
   0.3866551126516461    0.3016464471403813    0.5283362218370884 Pt
   0.4149913344887345    0.3016464471403813    0.5566724436741768 Pt
   0.4149913344887345    0.3583188908145580    0.3866551126516465 Pt
   0.4149913344887345    0.3299826689774697    0.4149913344887349 Pt
   0.3866551126516461    0.3583188908145580    0.4149913344887349 Pt
   0.3866551126516461    0.3299826689774697    0.4433275563258232 Pt
   0.4149913344887345    0.3583188908145580    0.4433275563258232 Pt
   0.4149913344887345    0.3299826689774697    0.4716637781629116 Pt
   0.3866551126516461    0.3583188908145580    0.4716637781629116 Pt
   0.3866551126516461    0.3299826689774697    0.5000000000000000 Pt
   0.4149913344887345    0.3583188908145580    0.5000000000000000 Pt
   0.4149913344887345    0.3299826689774697    0.5283362218370884 Pt
   0.3866551126516461    0.3583188908145580    0.5283362218370884 Pt
   0.3866551126516461    0.3299826689774697    0.5566724436741768 Pt
   0.4149913344887345    0.3583188908145580    0.5566724436741768 Pt
   0.4149913344887345    0.3299826689774697    0.5850086655112652 Pt
   0.3866551126516461    0.3583188908145580    0.5850086655112652 Pt
   0.4149913344887345    0.3583188908145580    0.6133448873483536 Pt
   0.4149913344887345    0.4149913344887349    0.3299826689774697 Pt
   0.4149913344887345    0.3866551126516465    0.3583188908145580 Pt
   0.3866551126516461    0.4149913344887349    0.3583188908145580 Pt
   0.3866551126516461    0.3866551126516465    0.3866551126516465 Pt
   0.4149913344887345    0.4149913344887349    0.3866551126516465 Pt
   0.4149913344887345    0.3866551126516465    0.4149913344887349 Pt
   0.3866551126516461    0.4149913344887349    0.4149913344887349 Pt
   0.3866551126516461    0.3866551126516465    0.4433275563258232 Pt
   0.4149913344887345    0.4149913344887349    0.4433275563258232 Pt
   0.4149913344887345    0.3866551126516465    0.4716637781629116 Pt
   0.3866551126516461    0.4149913344887349    0.4716637781629116 Pt
   0.3866551126516461    0.3866551126516465    0.5000000000000000 Pt
   0.4149913344887345    0.4149913344887349    0.5000000000000000 Pt
   0.4149913344887345    0.3866551126516465    0.5283362218370884 Pt
   0.3866551126516461    0.4149913344887349    0.5283362218370884 Pt
   0.3866551126516461    0.3866551126516465    0.5566724436741768 Pt
   0.4149913344887345    0.4149913344887349    0.5566724436741768 Pt
   0.4149913344887345    0.3866551126516465    0.5850086655112652 Pt
   0.3866551126516461    0.4149913344887349    0.5850086655112652 Pt
   0.3866551126516461    0.3866551126516465    0.6133448873483536 Pt
   0.4149913344887345    0.4149913344887349    0.6133448873483536 Pt
   0.4149913344887345    0.3866551126516465    0.6416811091854420 Pt
   0.3866551126516461    0.4149913344887349    0.6416811091854420 Pt
   0.4149913344887345    0.4149913344887349    0.6700173310225302 Pt
   0.4149913344887345    0.4716637781629117    0.2733102253032930 Pt
   0.4149913344887345    0.4433275563258232    0.3016464471403813 Pt
   0.3866551126516461    0.4716637781629117    0.3016464471403813 Pt
   0.3866551126516461    0.4433275563258232    0.3299826689774697 Pt
   0.4149913344887345    0.4716637781629117    0.3299826689774697 Pt
   0.4149913344887345    0.4433275563258232    0.3583188908145580 Pt
   0.3866551126516461    0.4716637781629117    0.3583188908145580 Pt
   0.3866551126516461    0.4433275563258232    0.3866551126516465 Pt
   0.4149913344887345    0.4716637781629117    0.3866551126516465 Pt
   0.4149913344887345    0.4433275563258232    0.4149913344887349 Pt
   0.3866551126516461    0.4716637781629117    0.4149913344887349 Pt
   0.3866551126516461    0.4433275563258232    0.4433275563258232 Pt
   0.4149913344887345    0.4716637781629117    0.4433275563258232 Pt
   0.4149913344887345    0.4433275563258232    0.4716637781629116 Pt
   0.3866551126516461    0.4716637781629117    0.4716637781629116 Pt
   0.3866551126516461    0.4433275563258232    0.5000000000000000 Pt
   0.4149913344887345    0.4716637781629117    0.5000000000000000 Pt
   0.4149913344887345    0.4433275563258232    0.5283362218370884 Pt
   0.3866551126516461    0.4716637781629117    0.5283362218370884 Pt
   0.3866551126516461    0.4433275563258232    0.5566724436741768 Pt
   0.4149913344887345    0.4716637781629117    0.5566724436741768 Pt
   0.4149913344887345    0.4433275563258232    0.5850086655112652 Pt
   0.3866551126516461    0.4716637781629117    0.5850086655112652 Pt
   0.3866551126516461    0.4433275563258232    0.6133448873483536 Pt
   0.4149913344887345    0.4716637781629117    0.6133448873483536 Pt
   0.4149913344887345    0.4433275563258232    0.6416811091854420 Pt
   0.3866551126516461    0.4716637781629117    0.6416811091854420 Pt
   0.3866551126516461    0.4433275563258232    0.6700173310225302 Pt
   0.4149913344887345    0.4716637781629117    0.6700173310225302 Pt
   0.4149913344887345    0.4433275563258232    0.6983535528596188 Pt
   0.3866551126516461    0.4716637781629117    0.6983535528596188 Pt
   0.4149913344887345    0.4716637781629117    0.7266897746967070 Pt
   0.4149913344887345    0.5000000000000000    0.2449740034662045 Pt
   0.3866551126516461    0.5000000000000000    0.2733102253032930 Pt
   0.4149913344887345    0.5283362218370884    0.2733102253032930 Pt
   0.4149913344887345    0.5000000000000000    0.3016464471403813 Pt
   0.3866551126516461    0.5283362218370884    0.3016464471403813 Pt
   0.3866551126516461    0.5000000000000000    0.3299826689774697 Pt
   0.4149913344887345    0.5283362218370884    0.3299826689774697 Pt
   0.4149913344887345    0.5000000000000000    0.3583188908145580 Pt
   0.3866551126516461    0.5283362218370884    0.3583188908145580 Pt
   0.3866551126516461    0.5000000000000000    0.3866551126516465 Pt
   0.4149913344887345    0.5283362218370884    0.3866551126516465 Pt
   0.4149913344887345    0.5000000000000000    0.4149913344887349 Pt
   0.3866551126516461    0.5283362218370884    0.4149913344887349 Pt
   0.3866551126516461    0.5000000000000000    0.4433275563258232 Pt
   0.4149913344887345    0.5283362218370884    0.4433275563258232 Pt
   0.4149913344887345    0.5000000000000000    0.4716637781629116 Pt
   0.3866551126516461    0.5283362218370884    0.4716637781629116 Pt
   0.3866551126516461    0.5000000000000000    0.5000000000000000 Pt
   0.4149913344887345    0.5283362218370884    0.5000000000000000 Pt
   0.4149913344887345    0.5000000000000000    0.5283362218370884 Pt
   0.3866551126516461    0.5283362218370884    0.5283362218370884 Pt
   0.3866551126516461    0.5000000000000000    0.5566724436741768 Pt
   0.4149913344887345    0.5283362218370884    0.5566724436741768 Pt
   0.4149913344887345    0.5000000000000000    0.5850086655112652 Pt
   0.3866551126516461    0.5283362218370884    0.5850086655112652 Pt
   0.3866551126516461    0.5000000000000000    0.6133448873483536 Pt
   0.4149913344887345    0.5283362218370884    0.6133448873483536 Pt
   0.4149913344887345    0.5000000000000000    0.6416811091854420 Pt
   0.3866551126516461    0.5283362218370884    0.6416811091854420 Pt
   0.3866551126516461    0.5000000000000000    0.6700173310225302 Pt
   0.4149913344887345    0.5283362218370884    0.6700173310225302 Pt
   0.4149913344887345    0.5000000000000000    0.6983535528596188 Pt
   0.3866551126516461    0.5283362218370884    0.6983535528596188 Pt
   0.3866551126516461    0.5000000000000000    0.7266897746967070 Pt
   0.4149913344887345    0.5283362218370884    0.7266897746967070 Pt
   0.4149913344887345    0.5000000000000000    0.7550259965337954 Pt
   0.4149913344887345    0.5566724436741768    0.3016464471403813 Pt
   0.3866551126516461    0.5566724436741768    0.3299826689774697 Pt
   0.4149913344887345    0.5850086655112652    0.3299826689774697 Pt
   0.4149913344887345    0.5566724436741768    0.3583188908145580 Pt
   0.3866551126516461    0.5850086655112652    0.3583188908145580 Pt
   0.3866551126516461    0.5566724436741768    0.3866551126516465 Pt
   0.4149913344887345    0.5850086655112652    0.3866551126516465 Pt
   0.4149913344887345    0.5566724436741768    0.4149913344887349 Pt
   0.3866551126516461    0.5850086655112652    0.4149913344887349 Pt
   0.3866551126516461    0.5566724436741768    0.4433275563258232 Pt
   0.4149913344887345    0.5850086655112652    0.4433275563258232 Pt
   0.4149913344887345    0.5566724436741768    0.4716637781629116 Pt
   0.3866551126516461    0.5850086655112652    0.4716637781629116 Pt
   0.3866551126516461    0.5566724436741768    0.5000000000000000 Pt
   0.4149913344887345    0.5850086655112652    0.5000000000000000 Pt
   0.4149913344887345    0.5566724436741768    0.5283362218370884 Pt
   0.3866551126516461    0.5850086655112652    0.5283362218370884 Pt
   0.3866551126516461    0.5566724436741768    0.5566724436741768 Pt
   0.4149913344887345    0.5850086655112652    0.5566724436741768 Pt
   0.4149913344887345    0.5566724436741768    0.5850086655112652 Pt
   0.3866551126516461    0.5850086655112652    0.5850086655112652 Pt
   0.3866551126516461    0.5566724436741768    0.6133448873483536 Pt
   0.4149913344887345    0.5850086655112652    0.6133448873483536 Pt
   0.4149913344887345    0.5566724436741768    0.6416811091854420 Pt
   0.3866551126516461    0.5850086655112652    0.6416811091854420 Pt
   0.3866551126516461    0.5566724436741768    0.6700173310225302 Pt
   0.4149913344887345    0.5850086655112652    0.6700173310225302 Pt
   0.4149913344887345    0.5566724436741768    0.6983535528596188 Pt
   0.4149913344887345    0.6133448873483536    0.3583188908145580 Pt
   0.3866551126516461    0.6133448873483536    0.3866551126516465 Pt
   0.4149913344887345    0.6416811091854420    0.3866551126516465 Pt
   0.4149913344887345    0.6133448873483536    0.4149913344887349 Pt
   0.3866551126516461    0.6416811091854420    0.4149913344887349 Pt
   0.3866551126516461    0.6133448873483536    0.4433275563258232 Pt
   0.4149913344887345    0.6416811091854420    0.4433275563258232 Pt
   0.4149913344887345    0.6133448873483536    0.4716637781629116 Pt
   0.3866551126516461    0.6416811091854420    0.4716637781629116 Pt
   0.3866551126516461    0.6133448873483536    0.5000000000000000 Pt
   0.4149913344887345    0.6416811091854420    0.5000000000000000 Pt
   0.4149913344887345    0.6133448873483536    0.5283362218370884 Pt
   0.3866551126516461    0.6416811091854420    0.5283362218370884 Pt
   0.3866551126516461    0.6133448873483536    0.5566724436741768 Pt
   0.4149913344887345    0.6416811091854420    0.5566724436741768 Pt
   0.4149913344887345    0.6133448873483536    0.5850086655112652 Pt
   0.3866551126516461    0.6416811091854420    0.5850086655112652 Pt
   0.3866551126516461    0.6133448873483536    0.6133448873483536 Pt
   0.4149913344887345    0.6416811091854420    0.6133448873483536 Pt
   0.4149913344887345    0.6133448873483536    0.6416811091854420 Pt
   0.4149913344887345    0.6700173310225302    0.4149913344887349 Pt
   0.3866551126516461    0.6700173310225302    0.4433275563258232 Pt
   0.4149913344887345    0.6983535528596188    0.4433275563258232 Pt
   0.4149913344887345    0.6700173310225302    0.4716637781629116 Pt
   0.3866551126516461    0.6983535528596188    0.4716637781629116 Pt
   0.3866551126516461    0.6700173310225302    0.5000000000000000 Pt
   0.4149913344887345    0.6983535528596188    0.5000000000000000 Pt
   0.4149913344887345    0.6700173310225302    0.5283362218370884 Pt
   0.3866551126516461    0.6983535528596188    0.5283362218370884 Pt
   0.3866551126516461    0.6700173310225302    0.5566724436741768 Pt
   0.4149913344887345    0.6983535528596188    0.5566724436741768 Pt
   0.4149913344887345    0.6700173310225302    0.5850086655112652 Pt
   0.4149913344887345    0.7266897746967070    0.4716637781629116 Pt
   0.3866551126516461    0.7266897746967070    0.5000000000000000 Pt
   0.4149913344887345    0.7550259965337954    0.5000000000000000 Pt
   0.4149913344887345    0.7266897746967070    0.5283362218370884 Pt
   0.4716637781629113    0.2449740034662045    0.4433275563258232 Pt
   0.4716637781629113    0.2166377816291161    0.4716637781629116 Pt
   0.4433275563258229    0.2449740034662045    0.4716637781629116 Pt
   0.4433275563258229    0.2166377816291161    0.5000000000000000 Pt
   0.4716637781629113    0.2449740034662045    0.5000000000000000 Pt
   0.4716637781629113    0.2166377816291161    0.5283362218370884 Pt
   0.4433275563258229    0.2449740034662045    0.5283362218370884 Pt
   0.4716637781629113    0.2449740034662045    0.5566724436741768 Pt
   0.4716637781629113    0.3016464471403813    0.3866551126516465 Pt
   0.4716637781629113    0.2733102253032930    0.4149913344887349 Pt
   0.4433275563258229    0.3016464471403813    0.4149913344887349 Pt
   0.4433275563258229    0.2733102253032930    0.4433275563258232 Pt
   0.4716637781629113    0.3016464471403813    0.4433275563258232 Pt
   0.4716637781629113    0.2733102253032930    0.4716637781629116 Pt
   0.4433275563258229    0.3016464471403813    0.4716637781629116 Pt
   0.4433275563258229    0.2733102253032930    0.5000000000000000 Pt
   0.4716637781629113    0.3016464471403813    0.5000000000000000 Pt
   0.4716637781629113    0.2733102253032930    0.5283362218370884 Pt
   0.4433275563258229    0.3016464471403813    0.5283362218370884 Pt
   0.4433275563258229    0.2733102253032930    0.5566724436741768 Pt
   0.4716637781629113    0.3016464471403813    0.5566724436741768 Pt
   0.4716637781629113    0.2733102253032930    0.5850086655112652 Pt
   0.4433275563258229    0.3016464471403813    0.5850086655112652 Pt
   0.4716637781629113    0.3016464471403813    0.6133448873483536 Pt
   0.4716637781629113    0.3583188908145580    0.3299826689774697 Pt
   0.4716637781629113    0.3299826689774697    0.3583188908145580 Pt
   0.4433275563258229    0.3583188908145580    0.3583188908145580 Pt
   0.4433275563258229    0.3299826689774697    0.3866551126516465 Pt
   0.4716637781629113    0.3583188908145580    0.3866551126516465 Pt
   0.4716637781629113    0.3299826689774697    0.4149913344887349 Pt
   0.4433275563258229    0.3583188908145580    0.4149913344887349 Pt
   0.4433275563258229    0.3299826689774697    0.4433275563258232 Pt
   0.4716637781629113    0.3583188908145580    0.4433275563258232 Pt
   0.4716637781629113    0.3299826689774697    0.4716637781629116 Pt
   0.4433275563258229    0.3583188908145580    0.4716637781629116 Pt
   0.4433275563258229    0.3299826689774697    0.5000000000000000 Pt
   0.4716637781629113    0.3583188908145580    0.5000000000000000 Pt
   0.4716637781629113    0.3299826689774697    0.5283362218370884 Pt
   0.4433275563258229    0.3583188908145580    0.5283362218370884 Pt
   0.4433275563258229    0.3299826689774697    0.5566724436741768 Pt
   0.4716637781629113    0.3583188908145580    0.5566724436741768 Pt
   0.4716637781629113    0.3299826689774697    0.5850086655112652 Pt
   0.4433275563258229    0.3583188908145580    0.5850086655112652 Pt
   0.4433275563258229    0.3299826689774697    0.6133448873483536 Pt
   0.4716637781629113    0.3583188908145580    0.6133448873483536 Pt
   0.4716637781629113    0.3299826689774697    0.6416811091854420 Pt
   0.4433275563258229    0.3583188908145580    0.6416811091854420 Pt
   0.4716637781629113    0.3583188908145580    0.6700173310225302 Pt
   0.4716637781629113    0.4149913344887349    0.2733102253032930 Pt
   0.4716637781629113    0.3866551126516465    0.3016464471403813 Pt
   0.4433275563258229    0.4149913344887349    0.3016464471403813 Pt